kp_lp_files/pr152_n151_uncorr-similar-weights_01-kp.lp
MAXIMIZE
1 z0 + 896 z1 + 367 z2 + 690 z3 + 613 z4 + 874 z5 + 122 z6 + 486 z7 + 823 z8 + 463 z9 + 589 z10 + 325 z11 + 1000 z12 + 776 z13 + 123 z14 + 356 z15 + 305 z16 + 47 z17 + 645 z18 + 139 z19 + 247 z20 + 211 z21 + 100 z22 + 627 z23 + 760 z24 + 776 z25 + 475 z26 + 937 z27 + 101 z28 + 281 z29 + 751 z30 + 530 z31 + 240 z32 + 248 z33 + 768 z34 + 31 z35 + 613 z36 + 881 z37 + 367 z38 + 712 z39 + 410 z40 + 157 z41 + 824 z42 + 242 z43 + 472 z44 + 722 z45 + 775 z46 + 371 z47 + 337 z48 + 885 z49 + 204 z50 + 594 z51 + 226 z52 + 226 z53 + 921 z54 + 537 z55 + 112 z56 + 959 z57 + 392 z58 + 709 z59 + 940 z60 + 943 z61 + 79 z62 + 922 z63 + 361 z64 + 947 z65 + 861 z66 + 937 z67 + 754 z68 + 872 z69 + 636 z70 + 459 z71 + 390 z72 + 141 z73 + 111 z74 + 588 z75 + 6 z76 + 155 z77 + 723 z78 + 723 z79 + 667 z80 + 829 z81 + 487 z82 + 590 z83 + 370 z84 + 823 z85 + 173 z86 + 56 z87 + 977 z88 + 681 z89 + 689 z90 + 933 z91 + 809 z92 + 587 z93 + 686 z94 + 466 z95 + 356 z96 + 784 z97 + 862 z98 + 223 z99 + 541 z100 + 61 z101 + 416 z102 + 62 z103 + 205 z104 + 152 z105 + 913 z106 + 267 z107 + 249 z108 + 187 z109 + 174 z110 + 939 z111 + 519 z112 + 56 z113 + 381 z114 + 551 z115 + 128 z116 + 812 z117 + 753 z118 + 544 z119 + 684 z120 + 830 z121 + 725 z122 + 330 z123 + 115 z124 + 38 z125 + 445 z126 + 619 z127 + 648 z128 + 896 z129 + 658 z130 + 306 z131 + 806 z132 + 800 z133 + 612 z134 + 354 z135 + 300 z136 + 174 z137 + 751 z138 + 126 z139 + 603 z140 + 665 z141 + 209 z142 + 308 z143 + 308 z144 + 677 z145 + 863 z146 + 292 z147 + 444 z148 + 295 z149 + 413 z150
SUBJECT TO
1008 z0 + 1006 z1 + 1006 z2 + 1001 z3 + 1006 z4 + 1001 z5 + 1009 z6 + 1004 z7 + 1001 z8 + 1003 z9 + 1004 z10 + 1009 z11 + 1006 z12 + 1005 z13 + 1000 z14 + 1000 z15 + 1007 z16 + 1006 z17 + 1008 z18 + 1000 z19 + 1009 z20 + 1009 z21 + 1007 z22 + 1004 z23 + 1002 z24 + 1006 z25 + 1006 z26 + 1007 z27 + 1008 z28 + 1008 z29 + 1008 z30 + 1006 z31 + 1004 z32 + 1005 z33 + 1000 z34 + 1003 z35 + 1007 z36 + 1004 z37 + 1007 z38 + 1000 z39 + 1007 z40 + 1009 z41 + 1000 z42 + 1000 z43 + 1005 z44 + 1006 z45 + 1001 z46 + 1006 z47 + 1003 z48 + 1008 z49 + 1008 z50 + 1008 z51 + 1006 z52 + 1002 z53 + 1000 z54 + 1006 z55 + 1001 z56 + 1005 z57 + 1001 z58 + 1006 z59 + 1002 z60 + 1006 z61 + 1001 z62 + 1004 z63 + 1000 z64 + 1003 z65 + 1009 z66 + 1009 z67 + 1005 z68 + 1000 z69 + 1001 z70 + 1009 z71 + 1001 z72 + 1005 z73 + 1009 z74 + 1003 z75 + 1001 z76 + 1009 z77 + 1008 z78 + 1009 z79 + 1004 z80 + 1007 z81 + 1004 z82 + 1008 z83 + 1006 z84 + 1007 z85 + 1002 z86 + 1000 z87 + 1005 z88 + 1005 z89 + 1007 z90 + 1005 z91 + 1002 z92 + 1002 z93 + 1003 z94 + 1000 z95 + 1004 z96 + 1001 z97 + 1009 z98 + 1009 z99 + 1006 z100 + 1002 z101 + 1001 z102 + 1001 z103 + 1002 z104 + 1008 z105 + 1009 z106 + 1006 z107 + 1003 z108 + 1009 z109 + 1003 z110 + 1001 z111 + 1004 z112 + 1008 z113 + 1008 z114 + 1004 z115 + 1006 z116 + 1009 z117 + 1008 z118 + 1003 z119 + 1005 z120 + 1004 z121 + 1009 z122 + 1003 z123 + 1000 z124 + 1002 z125 + 1005 z126 + 1009 z127 + 1000 z128 + 1005 z129 + 1006 z130 + 1005 z131 + 1008 z132 + 1002 z133 + 1002 z134 + 1000 z135 + 1008 z136 + 1008 z137 + 1002 z138 + 1001 z139 + 1001 z140 + 1000 z141 + 1006 z142 + 1000 z143 + 1009 z144 + 1009 z145 + 1005 z146 + 1001 z147 + 1007 z148 + 1000 z149 + 1000 z150 <= 13790
BINARIES
z0
z1
z2
z3
z4
z5
z6
z7
z8
z9
z10
z11
z12
z13
z14
z15
z16
z17
z18
z19
z20
z21
z22
z23
z24
z25
z26
z27
z28
z29
z30
z31
z32
z33
z34
z35
z36
z37
z38
z39
z40
z41
z42
z43
z44
z45
z46
z47
z48
z49
z50
z51
z52
z53
z54
z55
z56
z57
z58
z59
z60
z61
z62
z63
z64
z65
z66
z67
z68
z69
z70
z71
z72
z73
z74
z75
z76
z77
z78
z79
z80
z81
z82
z83
z84
z85
z86
z87
z88
z89
z90
z91
z92
z93
z94
z95
z96
z97
z98
z99
z100
z101
z102
z103
z104
z105
z106
z107
z108
z109
z110
z111
z112
z113
z114
z115
z116
z117
z118
z119
z120
z121
z122
z123
z124
z125
z126
z127
z128
z129
z130
z131
z132
z133
z134
z135
z136
z137
z138
z139
z140
z141
z142
z143
z144
z145
z146
z147
z148
z149
z150
END