kp_sol_files/pr152_n151_uncorr-similar-weights_01-kp.sol
# Objective value = 12268
z0 0
z1 0
z2 0
z3 0
z4 0
z5 0
z6 0
z7 0
z8 0
z9 0
z10 0
z11 0
z12 1
z13 0
z14 0
z15 0
z16 0
z17 0
z18 0
z19 0
z20 0
z21 0
z22 0
z23 0
z24 0
z25 0
z26 0
z27 1
z28 0
z29 0
z30 0
z31 0
z32 0
z33 0
z34 0
z35 0
z36 0
z37 0
z38 0
z39 0
z40 0
z41 0
z42 0
z43 0
z44 0
z45 0
z46 0
z47 0
z48 0
z49 0
z50 0
z51 0
z52 0
z53 0
z54 1
z55 0
z56 0
z57 1
z58 0
z59 0
z60 1
z61 1
z62 0
z63 1
z64 0
z65 1
z66 0
z67 1
z68 0
z69 0
z70 0
z71 0
z72 0
z73 0
z74 0
z75 0
z76 0
z77 0
z78 0
z79 0
z80 0
z81 0
z82 0
z83 0
z84 0
z85 0
z86 0
z87 0
z88 1
z89 0
z90 0
z91 1
z92 0
z93 0
z94 0
z95 0
z96 0
z97 0
z98 0
z99 0
z100 0
z101 0
z102 0
z103 0
z104 0
z105 0
z106 1
z107 0
z108 0
z109 0
z110 0
z111 1
z112 0
z113 0
z114 0
z115 0
z116 0
z117 0
z118 0
z119 0
z120 0
z121 0
z122 0
z123 0
z124 0
z125 0
z126 0
z127 0
z128 0
z129 0
z130 0
z131 0
z132 0
z133 0
z134 0
z135 0
z136 0
z137 0
z138 0
z139 0
z140 0
z141 0
z142 0
z143 0
z144 0
z145 0
z146 0
z147 0
z148 0
z149 0
z150 0
